c This file was generated with the constraints_to_cnf module in this project.
c Starting from file 'celeba/constraints/celebA.txt'.
c There are 32 variables present in the constraints, and 40 total variables, given by the shape [np.int64(1), np.int64(40)].
c
p cnf 40 54
21 25 0
14 -15 0
19 -37 0
3 -19 0
3 -20 0
3 -32 0
3 -40 0
21 -1 0
21 -17 0
21 -23 0
21 -31 0
21 -39 0
37 -19 0
40 -6 0
-1 -25 0
-2 -13 0
-12 -18 0
-12 -5 0
-12 -9 0
-12 -10 0
-14 -3 0
-15 -3 0
-17 -25 0
-18 -40 0
-18 -5 0
-18 -9 0
-18 -10 0
-19 -21 0
-19 -39 0
-3 -4 0
-3 -8 0
-21 -35 0
-21 -37 0
-21 -38 0
-23 -25 0
-25 -31 0
-28 -8 0
-29 -36 0
-29 -40 0
-29 -6 0
-4 -40 0
-33 -34 0
-33 -5 0
-34 -5 0
-35 -39 0
-36 -5 0
-36 -6 0
-37 -39 0
-38 -39 0
-40 -5 0
-5 -6 0
-5 -9 0
-5 -10 0
-9 -10 0

